row=6;
column=6;
left=[10, 0, 0, 0, 6, 13];
right=[0, 0, 9, 6, 0, 0];
top=[0, 6, 18, 10, 11, 13];
bottom=[8, 0, 6, 0, 13, 0];
Board=[|0,0,0,0,0,0|0,2,0,0,6,0|0,0,0,0,2,0|0,0,2,0,4,0|0,0,0,0,0,4|0,0,6,0,0,1|]